3
3
3 3 -7
1 1 1
0 3 1 1 -1
0 3 2 2 1
0 3 6 6 -1
0 3 7 7 -1
1 1 1 1 1
1 1 1 2 0.25
1 1 2 2 1
1 2 1 1 1
1 3 1 1 -1
1 3 2 2 1
1 3 3 3 1
1 3 6 6 -1
2 1 2 2 0.5
2 1 2 3 2
2 1 3 3 0.5
2 2 2 2 1
2 2 2 3 3
2 2 3 3 1
2 3 1 1 -1
2 3 4 4 1
2 3 7 7 -1
3 1 3 3 1
3 2 1 1 1
3 2 1 2 0.2
3 2 2 2 1
3 3 2 2 1
3 3 5 5 1
*INTEGER
*1
*2
*3